<instance format="XCSP3" type="CSP">
  <variables>
    <var id="x0"> 9 10 15 </var>
    <var id="x1"> 9 10 17 </var>
    <var id="x2"> 5 9 12 15 17 </var>
    <var id="x3"> 5 11 12 15 </var>
    <var id="x4"> 0 5 10 17 </var>
    <var id="x5"> 9 11 17 </var>
    <var id="x6"> 5 10 12 </var>
    <var id="x7"> 0 5 10 11 </var>
    <var id="x8"> 3 7 8 17 </var>
    <var id="x9"> 2 3 10 16 </var>
    <var id="x10"> 3 7 10 </var>
    <var id="x11"> 4 7 8 17 </var>
    <var id="x12"> 3 10 17 </var>
    <var id="x13"> 8 </var>
    <var id="x14"> 3 4 </var>
    <var id="x15"> 2..4 10 </var>
    <var id="x16"> 1 3 13 15 17 </var>
    <var id="x17"> 13 15 17 </var>
    <var id="x18"> 1 3 7 8 14 </var>
    <var id="x19"> 1 3 7 13 17 </var>
    <var id="x20"> 3 13 15 </var>
    <var id="x21"> 1 3 13 14 </var>
    <var id="x22"> 7 17 </var>
    <var id="x23"> 14 15 </var>
    <var id="x24"> 3 6 9 13 15 17 </var>
    <var id="x25"> 4 9 15 17 </var>
    <var id="x26"> 3..5 17 </var>
    <var id="x27"> 3..5 9 </var>
    <var id="x28"> 3 4 9 13 17 </var>
    <var id="x29"> 3 5 13 </var>
    <var id="x30"> 3..5 13 </var>
    <var id="x31"> 4 6 15 </var>
    <var id="x32"> 1 3 15 </var>
    <var id="x33"> 1 3 7 15 </var>
    <var id="x34"> 4 7 11 15 </var>
    <var id="x35"> 7 </var>
    <var id="x36"> 1 4 5 15 </var>
    <var id="x37"> 3..5 7 </var>
    <var id="x38"> 1 3..5 7 </var>
    <var id="x39"> 1 7 9 10 </var>
    <var id="x40"> 1 5 10 11 </var>
    <var id="x41"> 6 7 9 10 16 </var>
    <var id="x42"> 1 5 10 </var>
    <var id="x43"> 5 7 16 </var>
    <var id="x44"> 1 7 9 11 </var>
    <var id="x45"> 5 6 11 </var>
    <var id="x46"> 1 5 10 16 </var>
    <var id="x47"> 3 7 8 17 </var>
    <var id="x48"> 7 8 11 17 </var>
    <var id="x49"> 1 3 11 17 </var>
    <var id="x50"> 1 8 11 </var>
    <var id="x51"> 3 7 16 17 </var>
    <var id="x52"> 1 3 7 11 17 </var>
    <var id="x53"> 1 3 16 </var>
    <var id="x54"> 0 7 11 17 </var>
    <var id="x55"> 2 3 6 9 </var>
    <var id="x56"> 3 9 </var>
    <var id="x57"> 3 5 </var>
    <var id="x58"> 6 8 9 14 </var>
    <var id="x59"> 2 4 5 </var>
    <var id="x60"> 5 6 8 </var>
    <var id="x61"> 3..5 </var>
    <var id="x62"> 3 5 14 </var>
    <var id="x63"> 3 7 9 13 17 </var>
    <var id="x64"> 4 7 9 11 12 17 </var>
    <var id="x65"> 3 11 13 17 </var>
    <var id="x66"> 4 9 12 17 </var>
    <var id="x67"> 4 11 13 17 </var>
    <var id="x68"> 4 13 17 </var>
    <var id="x69"> 3 4 7 9 11 13 17 </var>
    <var id="x70"> 3 4 11..13 </var>
    <var id="x71"> 3 6 15 </var>
    <var id="x72"> 4 5 13 15 </var>
    <var id="x73"> 3..5 12 </var>
    <var id="x74"> 3 4 13 </var>
    <var id="x75"> 3..6 12 13 15 </var>
    <var id="x76"> 0 5 12 </var>
    <var id="x77"> 0 3..5 13 </var>
    <var id="x78"> 0 4 6 12 15 </var>
    <var id="x79"> 2 10 16 </var>
    <var id="x80"> 2 5 11 16 </var>
    <var id="x81"> 0 5 10 </var>
    <var id="x82"> 5 7 </var>
    <var id="x83"> 5 11 12 </var>
    <var id="x84"> 0 2 5 7 11 12 </var>
    <var id="x85"> 0 2 5 10 11 </var>
    <var id="x86"> 0 2 12 16 </var>
    <var id="x87"> 5 15 17 </var>
    <var id="x88"> 16 17 </var>
    <var id="x89"> 2 4 5 12 15 17 </var>
    <var id="x90"> 2 4 5 15..17 </var>
    <var id="x91"> 4 5 12 16 17 </var>
    <var id="x92"> 4 5 </var>
    <var id="x93"> 5 12 16 </var>
    <var id="x94"> 6 9 13 </var>
    <var id="x95"> 1 9 10 13 </var>
    <var id="x96"> 6 9 10 16 </var>
    <var id="x97"> 5 11 13 16 </var>
    <var id="x98"> 1 5 9 </var>
    <var id="x99"> 5 9 11 </var>
    <var id="x100"> 5 10 11 13 </var>
    <var id="x101"> 6 16 </var>
    <var id="x102"> 3 9 13 17 </var>
    <var id="x103"> 4 9 12 17 </var>
    <var id="x104"> 1 3 5 13 17 </var>
    <var id="x105"> 1 4 5 13 17 </var>
    <var id="x106"> 1 3 5 12 13 </var>
    <var id="x107"> 5 9 12 17 </var>
    <var id="x108"> 3..5 13 </var>
    <var id="x109"> 4 12 </var>
    <var id="x110"> 8 13 15 17 </var>
    <var id="x111"> 1 2 15 </var>
    <var id="x112"> 1 12 13 15 </var>
    <var id="x113"> 8 12 15 17 </var>
    <var id="x114"> 1 2 5 12 15 17 </var>
    <var id="x115"> 1 5 8 12 15 </var>
    <var id="x116"> 2 5 12 17 </var>
    <var id="x117"> 2 12 15 </var>
    <var id="x118"> 1 9 10 15 </var>
    <var id="x119"> 4 9 11 15 </var>
    <var id="x120"> 1 4 9 15 </var>
    <var id="x121"> 1 6 11 15 </var>
    <var id="x122"> 1 4 9 14 </var>
    <var id="x123"> 4 6 11 15 </var>
    <var id="x124"> 9 11 </var>
    <var id="x125"> 4 10 11 </var>
    <var id="x126"> 3 12 13 15 </var>
    <var id="x127"> 14 </var>
    <var id="x128"> 2 4 12 15 </var>
    <var id="x129"> 2 4 13 15 </var>
    <var id="x130"> 4 13 </var>
    <var id="x131"> 3 4 14 </var>
    <var id="x132"> 3 4 12 13 15 </var>
    <var id="x133"> 7 9 13 15 17 </var>
    <var id="x134"> 1 9 10 15 </var>
    <var id="x135"> 7 9 10 17 </var>
    <var id="x136"> 1 9 12 15 17 </var>
    <var id="x137"> 1 12 15 </var>
    <var id="x138"> 1 10 13 17 </var>
    <var id="x139"> 1 7 9 13 17 </var>
    <var id="x140"> 12 15 </var>
  </variables>
  <constraints>
    <group>
      <allDifferent> %... </allDifferent>
      <args> x0 x1 x2 x3 x4 x5 x6 x7 </args>
      <args> x8 x9 x10 x11 x12 x13 x14 x15 </args>
      <args> x16 x17 x18 x19 x20 x21 x22 x23 </args>
      <args> x24 x25 x26 x27 x28 x29 x30 x31 </args>
      <args> x32 x33 x34 x35 x36 x37 x38 </args>
      <args> x39 x40 x41 x42 x43 x44 x45 x46 </args>
      <args> x47 x48 x49 x50 x51 x52 x53 x54 </args>
      <args> x55 x56 x57 x58 x59 x60 x61 x62 </args>
      <args> x63 x64 x65 x66 x67 x68 x69 x70 </args>
      <args> x71 x72 x73 x74 x75 x76 x77 x78 </args>
      <args> x79 x80 x81 x82 x83 x84 x85 x86 </args>
      <args> x87 x88 x89 x90 x91 x92 x93 </args>
      <args> x94 x95 x96 x97 x98 x99 x100 x101 </args>
      <args> x102 x103 x104 x105 x106 x107 x108 x109 </args>
      <args> x110 x111 x112 x113 x114 x115 x116 x117 </args>
      <args> x118 x119 x120 x121 x122 x123 x124 x125 </args>
      <args> x126 x127 x128 x129 x130 x131 x132 </args>
      <args> x133 x134 x135 x136 x137 x138 x139 x140 </args>
      <args> x8 x24 x47 x63 x94 x102 x110 x133 </args>
      <args> x0 x9 x32 x55 x71 x79 x111 x134 </args>
      <args> x10 x33 x39 x56 x95 x112 x118 x126 </args>
      <args> x11 x25 x34 x48 x64 x103 x113 x119 </args>
      <args> x12 x16 x40 x49 x57 x65 x87 x104 </args>
      <args> x1 x35 x41 x58 x88 x96 x127 x135 </args>
      <args> x2 x36 x66 x89 x114 x120 x128 x136 </args>
      <args> x17 x59 x67 x72 x80 x90 x97 x129 </args>
      <args> x3 x13 x50 x60 x115 x121 x137 </args>
      <args> x4 x42 x68 x81 x105 x130 x138 </args>
      <args> x26 x37 x43 x51 x61 x73 x91 </args>
      <args> x18 x27 x38 x82 x92 x98 x122 x131 </args>
      <args> x5 x19 x28 x44 x52 x69 x74 x139 </args>
      <args> x14 x20 x45 x70 x75 x83 x123 x132 </args>
      <args> x6 x21 x29 x46 x53 x62 x93 x106 </args>
      <args> x22 x54 x76 x84 x99 x107 x116 x124 </args>
      <args> x7 x15 x30 x77 x85 x100 x108 x125 </args>
      <args> x23 x31 x78 x86 x101 x109 x117 x140 </args>
    </group>
  </constraints>
</instance>

